WARNING: for repeatability, setting FPU to use double precision
============================[ Problem Statistics ]=============================
|                                                                             |
|  Number of variables:           100                                         |
|  Number of clauses:             449                                         |
|  Parse time:                   0.00 s                                       |
|  Simplification time:          0.00 s                                       |
|                                                                             |
============================[ Search Statistics ]==============================
| Conflicts |          ORIGINAL         |          LEARNT          | Progress |
|           |    Vars  Clauses Literals |    Limit  Clauses Lit/Cl |          |
===============================================================================
|       100 |     100      449     1347 |      164      100      7 |  0.010 % |
|       250 |     100      449     1347 |      181      165      7 |  0.010 % |
===============================================================================
restarts              : 4
conflicts             : 405            (118734 /sec)
decisions             : 482            (0.00 % random) (141308 /sec)
propagations          : 9868           (2892993 /sec)
conflict literals     : 2734           (22.88 % deleted)
Memory used           : 13.00 MB
CPU time              : 0.003411 s

SATISFIABLE
